N = 20;
W = 100;
H = 100;
ItemWidth = [ 27, 48, 27, 5, 46, 2, 9, 37, 98, 23, 32, 6, 34, 19, 2, 21, 16, 12, 33, 22 ];
ItemHeight = [ 84, 81, 79, 43, 43, 42, 39, 39, 33, 29, 24, 23, 23, 22, 19, 17, 17, 6, 6, 5 ];
